
%FILE DATA:	Soccer Computational Problem for MiniZinc Models	%
%AUTHOR:	Jack Wall	%
%CONTACT:  	116397063@umail.ucc.ie			%
%LAST UPDATE:	03/12/2020, 11:03:48						%
%DESCRIPTION: 	154 games played with 28 games left				%


n=14; %number of teams

%Games to play
games=[|14,2|5,10|4,1|9,2|10,9|6,13|3,9|12,10|10,7|13,5|5,9|10,12|1,5|5,8|7,12|1,6|4,5|12,3|11,1|3,10|12,5|2,9|1,8|14,9|7,13|13,6|6,12|10,1|];

%Initial points
iPoints=[41,24,38,17,26,31,24,33,23,35,33,27,43,25];

%POSITION CONSTRAINTS
% [|teamID, operator, position|...]
% operators index:
%  1 for =  operator
%  2 for >  operator
%  3 for >= operator
%  4 for <  operator
%  5 for <= operator
positionConstraints=[|1,1,1|13,1,2|10,2,2|];